94
raw_data/rcpsp/CV.xlsx cv94
Time limit set to 60 seconds
Running CP solver
/home/omastto1/General-Optimization-Solver/src/solvers/rcpsp.py:31(stream:49:6): Warning: Cumulative expression 'pulse': height is zero, expression is zero everywhere.
                                                                                            VarCumulAtom_100 = pulse("0", 0)
/home/omastto1/General-Optimization-Solver/src/solvers/rcpsp.py:31(stream:49:476): Warning: Cumulative expression 'pulse': height is zero, expression is zero everywhere.
                                                                                              VarCumulAtom_130 = pulse("30", 0)
/home/omastto1/General-Optimization-Solver/src/solvers/rcpsp.py:31(stream:50:6): Warning: Cumulative expression 'pulse': height is zero, expression is zero everywhere.
                                                                                            VarCumulAtom_134 = pulse("0", 0)
/home/omastto1/General-Optimization-Solver/src/solvers/rcpsp.py:31(stream:50:476): Warning: Cumulative expression 'pulse': height is zero, expression is zero everywhere.
                                                                                              VarCumulAtom_164 = pulse("30", 0)
/home/omastto1/General-Optimization-Solver/src/solvers/rcpsp.py:31(stream:51:6): Warning: Cumulative expression 'pulse': height is zero, expression is zero everywhere.
                                                                                            VarCumulAtom_168 = pulse("0", 0)
/home/omastto1/General-Optimization-Solver/src/solvers/rcpsp.py:31(stream:51:476): Warning: Cumulative expression 'pulse': height is zero, expression is zero everywhere.
                                                                                              VarCumulAtom_198 = pulse("30", 0)
 ! --------------------------------------------------- CP Optimizer 20.1.0.0 --
 ! Minimization problem - 32 variables, 110 constraints
 ! TimeLimit            = 60
 ! Workers              = 14
 ! LogVerbosity         = Terse
 ! Initial process time : 0.01s (0.01s extraction + 0.00s propagation)
 !  . Log search space  : 173.5 (before), 173.5 (after)
 !  . Memory usage      : 625.3 kB (before), 625.3 kB (after)
 ! Using parallel search with 14 workers.
 ! ----------------------------------------------------------------------------
 !          Best Branches  Non-fixed    W       Branch decision
                        0         32                 -
 + New bound is 24
 ! Using iterative diving.
 ! Using temporal relaxation.
 *            74       65  1.00s        1      (gap is 67.57%)
 *            73      380  1.00s        1      (gap is 67.12%)
 *            72      542  1.00s        1      (gap is 66.67%)
 *            68      678  1.00s        1      (gap is 64.71%)
              68     3223          2    1   F        -
 + New bound is 59 (gap is 13.24%)
 ! Using failure-directed search.
 *            67     2391  1.00s        3      (gap is 11.94%)
 *            66    13118  1.98s        4      (gap is 10.61%)
 *            65    20978  2.93s        4      (gap is 9.23%)
 *            64    23827  2.93s        4      (gap is 7.81%)
 ! ----------------------------------------------------------------------------
 ! Search terminated by limit, 8 solutions found.
 ! Best objective         : 64 (gap is 7.81%)
 ! Best bound             : 59
 ! ----------------------------------------------------------------------------
 ! Number of branches     : 7939349
 ! Number of fails        : 2202469
 ! Total memory usage     : 10.0 MB (9.9 MB CP Optimizer + 0.1 MB Concert)
 ! Time spent in solve    : 60.06s (60.05s engine + 0.01s extraction)
 ! Search speed (br. / s) : 132212.3
 ! ----------------------------------------------------------------------------
(59,)
(0.078125,)
(64,)
Objective value: 64
Solution is 3.2 % worse than the lower bound.
Feasible solution found
